name="r29";
nr_vertices=281;
nr_edges=3553;
neighborhoods=[{1,2,3,4,5,6,7,8,9,10,11,12,26,39,81,98,121,135,166,178,212,223,237,252},{0,2,3,4,5,6,7,8,9,10,11,15,28,42,57,69,83,100,123,137,151,180,201,225,268},{0,1,3,4,5,6,7,8,9,10,11,30,44,59,85,111,124,168,181,193,240,270},{0,1,2,4,5,6,7,8,9,10,11,16,61,71,86,113,154,194,203,228,254,272},{0,1,2,3,5,6,7,8,9,10,11,17,32,46,62,72,114,125,140,204,215,242,255},{0,1,2,3,4,6,7,8,9,10,11,47,63,87,126,170,183,195,205,216,229,256,273},{0,1,2,3,4,5,7,8,9,10,11,19,34,73,89,103,115,128,142,156,172,185,218,244,258,274},{0,1,2,3,4,5,6,8,9,10,11,20,35,64,74,90,104,116,129,143,157,173,186,206,231,245,259},{0,1,2,3,4,5,6,7,9,10,11,65,75,91,105,117,130,144,158,174,187,207,232,260,275},{0,1,2,3,4,5,6,7,8,10,11,22,37,51,67,77,93,107,118,161,176,196,209,220,247},{0,1,2,3,4,5,6,7,8,9,11,23,52,78,94,119,132,146,162,197,210,235,248,263,278},{0,1,2,3,4,5,6,7,8,9,10,54,68,96,133,147,164,189,211,222,250,265,280},{0,13,14,15,16,17,18,19,20,21,22,23,24,25,26,39,81,98,121,135,166,178,212,223,237,252},{12,14,15,16,17,18,19,20,21,22,23,24,25,40,82,99,109,136,149,191,200,238,266},{12,13,15,16,17,18,19,20,21,22,23,24,25,27,41,56,110,122,150,179,224,253,267},{1,12,13,14,16,17,18,19,20,21,22,23,24,25,28,42,57,69,83,100,123,137,151,180,201,225,268},{3,12,13,14,15,17,18,19,20,21,22,23,24,25,61,71,86,113,154,194,203,228,254,272},{4,12,13,14,15,16,18,19,20,21,22,23,24,25,32,46,62,72,114,125,140,204,215,242,255},{12,13,14,15,16,17,19,20,21,22,23,24,25,33,48,88,102,127,141,155,171,184,217,230,243,257},{6,12,13,14,15,16,17,18,20,21,22,23,24,25,34,73,89,103,115,128,142,156,172,185,218,244,258,274},{7,12,13,14,15,16,17,18,19,21,22,23,24,25,35,64,74,90,104,116,129,143,157,173,186,206,231,245,259},{12,13,14,15,16,17,18,19,20,22,23,24,25,49,66,92,131,159,175,188,208,233,261,276},{9,12,13,14,15,16,17,18,19,20,21,23,24,25,37,51,67,77,93,107,118,161,176,196,209,220,247},{10,12,13,14,15,16,17,18,19,20,21,22,24,25,52,78,94,119,132,146,162,197,210,235,248,263,278},{12,13,14,15,16,17,18,19,20,21,22,23,25,38,53,79,95,108,120,163,177,198,221,249,264,279},{12,13,14,15,16,17,18,19,20,21,22,23,24,55,80,97,134,148,165,190,199,236,251},{0,12,27,28,29,30,31,32,33,34,35,36,37,38,39,81,98,121,135,166,178,212,223,237,252},{14,26,28,29,30,31,32,33,34,35,36,37,38,41,56,110,122,150,179,224,253,267},{1,15,26,27,29,30,31,32,33,34,35,36,37,38,42,57,69,83,100,123,137,151,180,201,225,268},{26,27,28,30,31,32,33,34,35,36,37,38,43,58,70,84,138,152,167,192,202,213,226,239,269},{2,26,27,28,29,31,32,33,34,35,36,37,38,44,59,85,111,124,168,181,193,240,270},{26,27,28,29,30,32,33,34,35,36,37,38,45,60,101,112,139,153,169,182,214,227,241,271},{4,17,26,27,28,29,30,31,33,34,35,36,37,38,46,62,72,114,125,140,204,215,242,255},{18,26,27,28,29,30,31,32,34,35,36,37,38,48,88,102,127,141,155,171,184,217,230,243,257},{6,19,26,27,28,29,30,31,32,33,35,36,37,38,73,89,103,115,128,142,156,172,185,218,244,258,274},{7,20,26,27,28,29,30,31,32,33,34,36,37,38,64,74,90,104,116,129,143,157,173,186,206,231,245,259},{26,27,28,29,30,31,32,33,34,35,37,38,50,76,106,145,160,219,234,246,262,277},{9,22,26,27,28,29,30,31,32,33,34,35,36,38,51,67,77,93,107,118,161,176,196,209,220,247},{24,26,27,28,29,30,31,32,33,34,35,36,37,53,79,95,108,120,163,177,198,221,249,264,279},{0,12,26,40,41,42,43,44,45,46,47,48,49,50,51,52,53,54,55,81,98,121,135,166,178,212,223,237,252},{13,39,41,42,43,44,45,46,47,48,49,50,51,52,53,54,55,82,99,109,136,149,191,200,238,266},{14,27,39,40,42,43,44,45,46,47,48,49,50,51,52,53,54,55,56,110,122,150,179,224,253,267},{1,15,28,39,40,41,43,44,45,46,47,48,49,50,51,52,53,54,55,57,69,83,100,123,137,151,180,201,225,268},{29,39,40,41,42,44,45,46,47,48,49,50,51,52,53,54,55,58,70,84,138,152,167,192,202,213,226,239,269},{2,30,39,40,41,42,43,45,46,47,48,49,50,51,52,53,54,55,59,85,111,124,168,181,193,240,270},{31,39,40,41,42,43,44,46,47,48,49,50,51,52,53,54,55,60,101,112,139,153,169,182,214,227,241,271},{4,17,32,39,40,41,42,43,44,45,47,48,49,50,51,52,53,54,55,62,72,114,125,140,204,215,242,255},{5,39,40,41,42,43,44,45,46,48,49,50,51,52,53,54,55,63,87,126,170,183,195,205,216,229,256,273},{18,33,39,40,41,42,43,44,45,46,47,49,50,51,52,53,54,55,88,102,127,141,155,171,184,217,230,243,257},{21,39,40,41,42,43,44,45,46,47,48,50,51,52,53,54,55,66,92,131,159,175,188,208,233,261,276},{36,39,40,41,42,43,44,45,46,47,48,49,51,52,53,54,55,76,106,145,160,219,234,246,262,277},{9,22,37,39,40,41,42,43,44,45,46,47,48,49,50,52,53,54,55,67,77,93,107,118,161,176,196,209,220,247},{10,23,39,40,41,42,43,44,45,46,47,48,49,50,51,53,54,55,78,94,119,132,146,162,197,210,235,248,263,278},{24,38,39,40,41,42,43,44,45,46,47,48,49,50,51,52,54,55,79,95,108,120,163,177,198,221,249,264,279},{11,39,40,41,42,43,44,45,46,47,48,49,50,51,52,53,55,68,96,133,147,164,189,211,222,250,265,280},{25,39,40,41,42,43,44,45,46,47,48,49,50,51,52,53,54,80,97,134,148,165,190,199,236,251},{14,27,41,57,58,59,60,61,62,63,64,65,66,67,68,110,122,150,179,224,253,267},{1,15,28,42,56,58,59,60,61,62,63,64,65,66,67,68,69,83,100,123,137,151,180,201,225,268},{29,43,56,57,59,60,61,62,63,64,65,66,67,68,70,84,138,152,167,192,202,213,226,239,269},{2,30,44,56,57,58,60,61,62,63,64,65,66,67,68,85,111,124,168,181,193,240,270},{31,45,56,57,58,59,61,62,63,64,65,66,67,68,101,112,139,153,169,182,214,227,241,271},{3,16,56,57,58,59,60,62,63,64,65,66,67,68,71,86,113,154,194,203,228,254,272},{4,17,32,46,56,57,58,59,60,61,63,64,65,66,67,68,72,114,125,140,204,215,242,255},{5,47,56,57,58,59,60,61,62,64,65,66,67,68,87,126,170,183,195,205,216,229,256,273},{7,20,35,56,57,58,59,60,61,62,63,65,66,67,68,74,90,104,116,129,143,157,173,186,206,231,245,259},{8,56,57,58,59,60,61,62,63,64,66,67,68,75,91,105,117,130,144,158,174,187,207,232,260,275},{21,49,56,57,58,59,60,61,62,63,64,65,67,68,92,131,159,175,188,208,233,261,276},{9,22,37,51,56,57,58,59,60,61,62,63,64,65,66,68,77,93,107,118,161,176,196,209,220,247},{11,54,56,57,58,59,60,61,62,63,64,65,66,67,96,133,147,164,189,211,222,250,265,280},{1,15,28,42,57,70,71,72,73,74,75,76,77,78,79,80,83,100,123,137,151,180,201,225,268},{29,43,58,69,71,72,73,74,75,76,77,78,79,80,84,138,152,167,192,202,213,226,239,269},{3,16,61,69,70,72,73,74,75,76,77,78,79,80,86,113,154,194,203,228,254,272},{4,17,32,46,62,69,70,71,73,74,75,76,77,78,79,80,114,125,140,204,215,242,255},{6,19,34,69,70,71,72,74,75,76,77,78,79,80,89,103,115,128,142,156,172,185,218,244,258,274},{7,20,35,64,69,70,71,72,73,75,76,77,78,79,80,90,104,116,129,143,157,173,186,206,231,245,259},{8,65,69,70,71,72,73,74,76,77,78,79,80,91,105,117,130,144,158,174,187,207,232,260,275},{36,50,69,70,71,72,73,74,75,77,78,79,80,106,145,160,219,234,246,262,277},{9,22,37,51,67,69,70,71,72,73,74,75,76,78,79,80,93,107,118,161,176,196,209,220,247},{10,23,52,69,70,71,72,73,74,75,76,77,79,80,94,119,132,146,162,197,210,235,248,263,278},{24,38,53,69,70,71,72,73,74,75,76,77,78,80,95,108,120,163,177,198,221,249,264,279},{25,55,69,70,71,72,73,74,75,76,77,78,79,97,134,148,165,190,199,236,251},{0,12,26,39,82,83,84,85,86,87,88,89,90,91,92,93,94,95,96,97,98,121,135,166,178,212,223,237,252},{13,40,81,83,84,85,86,87,88,89,90,91,92,93,94,95,96,97,99,109,136,149,191,200,238,266},{1,15,28,42,57,69,81,82,84,85,86,87,88,89,90,91,92,93,94,95,96,97,100,123,137,151,180,201,225,268},{29,43,58,70,81,82,83,85,86,87,88,89,90,91,92,93,94,95,96,97,138,152,167,192,202,213,226,239,269},{2,30,44,59,81,82,83,84,86,87,88,89,90,91,92,93,94,95,96,97,111,124,168,181,193,240,270},{3,16,61,71,81,82,83,84,85,87,88,89,90,91,92,93,94,95,96,97,113,154,194,203,228,254,272},{5,47,63,81,82,83,84,85,86,88,89,90,91,92,93,94,95,96,97,126,170,183,195,205,216,229,256,273},{18,33,48,81,82,83,84,85,86,87,89,90,91,92,93,94,95,96,97,102,127,141,155,171,184,217,230,243,257},{6,19,34,73,81,82,83,84,85,86,87,88,90,91,92,93,94,95,96,97,103,115,128,142,156,172,185,218,244,258,274},{7,20,35,64,74,81,82,83,84,85,86,87,88,89,91,92,93,94,95,96,97,104,116,129,143,157,173,186,206,231,245,259},{8,65,75,81,82,83,84,85,86,87,88,89,90,92,93,94,95,96,97,105,117,130,144,158,174,187,207,232,260,275},{21,49,66,81,82,83,84,85,86,87,88,89,90,91,93,94,95,96,97,131,159,175,188,208,233,261,276},{9,22,37,51,67,77,81,82,83,84,85,86,87,88,89,90,91,92,94,95,96,97,107,118,161,176,196,209,220,247},{10,23,52,78,81,82,83,84,85,86,87,88,89,90,91,92,93,95,96,97,119,132,146,162,197,210,235,248,263,278},{24,38,53,79,81,82,83,84,85,86,87,88,89,90,91,92,93,94,96,97,108,120,163,177,198,221,249,264,279},{11,54,68,81,82,83,84,85,86,87,88,89,90,91,92,93,94,95,97,133,147,164,189,211,222,250,265,280},{25,55,80,81,82,83,84,85,86,87,88,89,90,91,92,93,94,95,96,134,148,165,190,199,236,251},{0,12,26,39,81,99,100,101,102,103,104,105,106,107,108,121,135,166,178,212,223,237,252},{13,40,82,98,100,101,102,103,104,105,106,107,108,109,136,149,191,200,238,266},{1,15,28,42,57,69,83,98,99,101,102,103,104,105,106,107,108,123,137,151,180,201,225,268},{31,45,60,98,99,100,102,103,104,105,106,107,108,112,139,153,169,182,214,227,241,271},{18,33,48,88,98,99,100,101,103,104,105,106,107,108,127,141,155,171,184,217,230,243,257},{6,19,34,73,89,98,99,100,101,102,104,105,106,107,108,115,128,142,156,172,185,218,244,258,274},{7,20,35,64,74,90,98,99,100,101,102,103,105,106,107,108,116,129,143,157,173,186,206,231,245,259},{8,65,75,91,98,99,100,101,102,103,104,106,107,108,117,130,144,158,174,187,207,232,260,275},{36,50,76,98,99,100,101,102,103,104,105,107,108,145,160,219,234,246,262,277},{9,22,37,51,67,77,93,98,99,100,101,102,103,104,105,106,108,118,161,176,196,209,220,247},{24,38,53,79,95,98,99,100,101,102,103,104,105,106,107,120,163,177,198,221,249,264,279},{13,40,82,99,110,111,112,113,114,115,116,117,118,119,120,136,149,191,200,238,266},{14,27,41,56,109,111,112,113,114,115,116,117,118,119,120,122,150,179,224,253,267},{2,30,44,59,85,109,110,112,113,114,115,116,117,118,119,120,124,168,181,193,240,270},{31,45,60,101,109,110,111,113,114,115,116,117,118,119,120,139,153,169,182,214,227,241,271},{3,16,61,71,86,109,110,111,112,114,115,116,117,118,119,120,154,194,203,228,254,272},{4,17,32,46,62,72,109,110,111,112,113,115,116,117,118,119,120,125,140,204,215,242,255},{6,19,34,73,89,103,109,110,111,112,113,114,116,117,118,119,120,128,142,156,172,185,218,244,258,274},{7,20,35,64,74,90,104,109,110,111,112,113,114,115,117,118,119,120,129,143,157,173,186,206,231,245,259},{8,65,75,91,105,109,110,111,112,113,114,115,116,118,119,120,130,144,158,174,187,207,232,260,275},{9,22,37,51,67,77,93,107,109,110,111,112,113,114,115,116,117,119,120,161,176,196,209,220,247},{10,23,52,78,94,109,110,111,112,113,114,115,116,117,118,120,132,146,162,197,210,235,248,263,278},{24,38,53,79,95,108,109,110,111,112,113,114,115,116,117,118,119,163,177,198,221,249,264,279},{0,12,26,39,81,98,122,123,124,125,126,127,128,129,130,131,132,133,134,135,166,178,212,223,237,252},{14,27,41,56,110,121,123,124,125,126,127,128,129,130,131,132,133,134,150,179,224,253,267},{1,15,28,42,57,69,83,100,121,122,124,125,126,127,128,129,130,131,132,133,134,137,151,180,201,225,268},{2,30,44,59,85,111,121,122,123,125,126,127,128,129,130,131,132,133,134,168,181,193,240,270},{4,17,32,46,62,72,114,121,122,123,124,126,127,128,129,130,131,132,133,134,140,204,215,242,255},{5,47,63,87,121,122,123,124,125,127,128,129,130,131,132,133,134,170,183,195,205,216,229,256,273},{18,33,48,88,102,121,122,123,124,125,126,128,129,130,131,132,133,134,141,155,171,184,217,230,243,257},{6,19,34,73,89,103,115,121,122,123,124,125,126,127,129,130,131,132,133,134,142,156,172,185,218,244,258,274},{7,20,35,64,74,90,104,116,121,122,123,124,125,126,127,128,130,131,132,133,134,143,157,173,186,206,231,245,259},{8,65,75,91,105,117,121,122,123,124,125,126,127,128,129,131,132,133,134,144,158,174,187,207,232,260,275},{21,49,66,92,121,122,123,124,125,126,127,128,129,130,132,133,134,159,175,188,208,233,261,276},{10,23,52,78,94,119,121,122,123,124,125,126,127,128,129,130,131,133,134,146,162,197,210,235,248,263,278},{11,54,68,96,121,122,123,124,125,126,127,128,129,130,131,132,134,147,164,189,211,222,250,265,280},{25,55,80,97,121,122,123,124,125,126,127,128,129,130,131,132,133,148,165,190,199,236,251},{0,12,26,39,81,98,121,136,137,138,139,140,141,142,143,144,145,146,147,148,166,178,212,223,237,252},{13,40,82,99,109,135,137,138,139,140,141,142,143,144,145,146,147,148,149,191,200,238,266},{1,15,28,42,57,69,83,100,123,135,136,138,139,140,141,142,143,144,145,146,147,148,151,180,201,225,268},{29,43,58,70,84,135,136,137,139,140,141,142,143,144,145,146,147,148,152,167,192,202,213,226,239,269},{31,45,60,101,112,135,136,137,138,140,141,142,143,144,145,146,147,148,153,169,182,214,227,241,271},{4,17,32,46,62,72,114,125,135,136,137,138,139,141,142,143,144,145,146,147,148,204,215,242,255},{18,33,48,88,102,127,135,136,137,138,139,140,142,143,144,145,146,147,148,155,171,184,217,230,243,257},{6,19,34,73,89,103,115,128,135,136,137,138,139,140,141,143,144,145,146,147,148,156,172,185,218,244,258,274},{7,20,35,64,74,90,104,116,129,135,136,137,138,139,140,141,142,144,145,146,147,148,157,173,186,206,231,245,259},{8,65,75,91,105,117,130,135,136,137,138,139,140,141,142,143,145,146,147,148,158,174,187,207,232,260,275},{36,50,76,106,135,136,137,138,139,140,141,142,143,144,146,147,148,160,219,234,246,262,277},{10,23,52,78,94,119,132,135,136,137,138,139,140,141,142,143,144,145,147,148,162,197,210,235,248,263,278},{11,54,68,96,133,135,136,137,138,139,140,141,142,143,144,145,146,148,164,189,211,222,250,265,280},{25,55,80,97,134,135,136,137,138,139,140,141,142,143,144,145,146,147,165,190,199,236,251},{13,40,82,99,109,136,150,151,152,153,154,155,156,157,158,159,160,161,162,163,164,165,191,200,238,266},{14,27,41,56,110,122,149,151,152,153,154,155,156,157,158,159,160,161,162,163,164,165,179,224,253,267},{1,15,28,42,57,69,83,100,123,137,149,150,152,153,154,155,156,157,158,159,160,161,162,163,164,165,180,201,225,268},{29,43,58,70,84,138,149,150,151,153,154,155,156,157,158,159,160,161,162,163,164,165,167,192,202,213,226,239,269},{31,45,60,101,112,139,149,150,151,152,154,155,156,157,158,159,160,161,162,163,164,165,169,182,214,227,241,271},{3,16,61,71,86,113,149,150,151,152,153,155,156,157,158,159,160,161,162,163,164,165,194,203,228,254,272},{18,33,48,88,102,127,141,149,150,151,152,153,154,156,157,158,159,160,161,162,163,164,165,171,184,217,230,243,257},{6,19,34,73,89,103,115,128,142,149,150,151,152,153,154,155,157,158,159,160,161,162,163,164,165,172,185,218,244,258,274},{7,20,35,64,74,90,104,116,129,143,149,150,151,152,153,154,155,156,158,159,160,161,162,163,164,165,173,186,206,231,245,259},{8,65,75,91,105,117,130,144,149,150,151,152,153,154,155,156,157,159,160,161,162,163,164,165,174,187,207,232,260,275},{21,49,66,92,131,149,150,151,152,153,154,155,156,157,158,160,161,162,163,164,165,175,188,208,233,261,276},{36,50,76,106,145,149,150,151,152,153,154,155,156,157,158,159,161,162,163,164,165,219,234,246,262,277},{9,22,37,51,67,77,93,107,118,149,150,151,152,153,154,155,156,157,158,159,160,162,163,164,165,176,196,209,220,247},{10,23,52,78,94,119,132,146,149,150,151,152,153,154,155,156,157,158,159,160,161,163,164,165,197,210,235,248,263,278},{24,38,53,79,95,108,120,149,150,151,152,153,154,155,156,157,158,159,160,161,162,164,165,177,198,221,249,264,279},{11,54,68,96,133,147,149,150,151,152,153,154,155,156,157,158,159,160,161,162,163,165,189,211,222,250,265,280},{25,55,80,97,134,148,149,150,151,152,153,154,155,156,157,158,159,160,161,162,163,164,190,199,236,251},{0,12,26,39,81,98,121,135,167,168,169,170,171,172,173,174,175,176,177,178,212,223,237,252},{29,43,58,70,84,138,152,166,168,169,170,171,172,173,174,175,176,177,192,202,213,226,239,269},{2,30,44,59,85,111,124,166,167,169,170,171,172,173,174,175,176,177,181,193,240,270},{31,45,60,101,112,139,153,166,167,168,170,171,172,173,174,175,176,177,182,214,227,241,271},{5,47,63,87,126,166,167,168,169,171,172,173,174,175,176,177,183,195,205,216,229,256,273},{18,33,48,88,102,127,141,155,166,167,168,169,170,172,173,174,175,176,177,184,217,230,243,257},{6,19,34,73,89,103,115,128,142,156,166,167,168,169,170,171,173,174,175,176,177,185,218,244,258,274},{7,20,35,64,74,90,104,116,129,143,157,166,167,168,169,170,171,172,174,175,176,177,186,206,231,245,259},{8,65,75,91,105,117,130,144,158,166,167,168,169,170,171,172,173,175,176,177,187,207,232,260,275},{21,49,66,92,131,159,166,167,168,169,170,171,172,173,174,176,177,188,208,233,261,276},{9,22,37,51,67,77,93,107,118,161,166,167,168,169,170,171,172,173,174,175,177,196,209,220,247},{24,38,53,79,95,108,120,163,166,167,168,169,170,171,172,173,174,175,176,198,221,249,264,279},{0,12,26,39,81,98,121,135,166,179,180,181,182,183,184,185,186,187,188,189,190,212,223,237,252},{14,27,41,56,110,122,150,178,180,181,182,183,184,185,186,187,188,189,190,224,253,267},{1,15,28,42,57,69,83,100,123,137,151,178,179,181,182,183,184,185,186,187,188,189,190,201,225,268},{2,30,44,59,85,111,124,168,178,179,180,182,183,184,185,186,187,188,189,190,193,240,270},{31,45,60,101,112,139,153,169,178,179,180,181,183,184,185,186,187,188,189,190,214,227,241,271},{5,47,63,87,126,170,178,179,180,181,182,184,185,186,187,188,189,190,195,205,216,229,256,273},{18,33,48,88,102,127,141,155,171,178,179,180,181,182,183,185,186,187,188,189,190,217,230,243,257},{6,19,34,73,89,103,115,128,142,156,172,178,179,180,181,182,183,184,186,187,188,189,190,218,244,258,274},{7,20,35,64,74,90,104,116,129,143,157,173,178,179,180,181,182,183,184,185,187,188,189,190,206,231,245,259},{8,65,75,91,105,117,130,144,158,174,178,179,180,181,182,183,184,185,186,188,189,190,207,232,260,275},{21,49,66,92,131,159,175,178,179,180,181,182,183,184,185,186,187,189,190,208,233,261,276},{11,54,68,96,133,147,164,178,179,180,181,182,183,184,185,186,187,188,190,211,222,250,265,280},{25,55,80,97,134,148,165,178,179,180,181,182,183,184,185,186,187,188,189,199,236,251},{13,40,82,99,109,136,149,192,193,194,195,196,197,198,199,200,238,266},{29,43,58,70,84,138,152,167,191,193,194,195,196,197,198,199,202,213,226,239,269},{2,30,44,59,85,111,124,168,181,191,192,194,195,196,197,198,199,240,270},{3,16,61,71,86,113,154,191,192,193,195,196,197,198,199,203,228,254,272},{5,47,63,87,126,170,183,191,192,193,194,196,197,198,199,205,216,229,256,273},{9,22,37,51,67,77,93,107,118,161,176,191,192,193,194,195,197,198,199,209,220,247},{10,23,52,78,94,119,132,146,162,191,192,193,194,195,196,198,199,210,235,248,263,278},{24,38,53,79,95,108,120,163,177,191,192,193,194,195,196,197,199,221,249,264,279},{25,55,80,97,134,148,165,190,191,192,193,194,195,196,197,198,236,251},{13,40,82,99,109,136,149,191,201,202,203,204,205,206,207,208,209,210,211,238,266},{1,15,28,42,57,69,83,100,123,137,151,180,200,202,203,204,205,206,207,208,209,210,211,225,268},{29,43,58,70,84,138,152,167,192,200,201,203,204,205,206,207,208,209,210,211,213,226,239,269},{3,16,61,71,86,113,154,194,200,201,202,204,205,206,207,208,209,210,211,228,254,272},{4,17,32,46,62,72,114,125,140,200,201,202,203,205,206,207,208,209,210,211,215,242,255},{5,47,63,87,126,170,183,195,200,201,202,203,204,206,207,208,209,210,211,216,229,256,273},{7,20,35,64,74,90,104,116,129,143,157,173,186,200,201,202,203,204,205,207,208,209,210,211,231,245,259},{8,65,75,91,105,117,130,144,158,174,187,200,201,202,203,204,205,206,208,209,210,211,232,260,275},{21,49,66,92,131,159,175,188,200,201,202,203,204,205,206,207,209,210,211,233,261,276},{9,22,37,51,67,77,93,107,118,161,176,196,200,201,202,203,204,205,206,207,208,210,211,220,247},{10,23,52,78,94,119,132,146,162,197,200,201,202,203,204,205,206,207,208,209,211,235,248,263,278},{11,54,68,96,133,147,164,189,200,201,202,203,204,205,206,207,208,209,210,222,250,265,280},{0,12,26,39,81,98,121,135,166,178,213,214,215,216,217,218,219,220,221,222,223,237,252},{29,43,58,70,84,138,152,167,192,202,212,214,215,216,217,218,219,220,221,222,226,239,269},{31,45,60,101,112,139,153,169,182,212,213,215,216,217,218,219,220,221,222,227,241,271},{4,17,32,46,62,72,114,125,140,204,212,213,214,216,217,218,219,220,221,222,242,255},{5,47,63,87,126,170,183,195,205,212,213,214,215,217,218,219,220,221,222,229,256,273},{18,33,48,88,102,127,141,155,171,184,212,213,214,215,216,218,219,220,221,222,230,243,257},{6,19,34,73,89,103,115,128,142,156,172,185,212,213,214,215,216,217,219,220,221,222,244,258,274},{36,50,76,106,145,160,212,213,214,215,216,217,218,220,221,222,234,246,262,277},{9,22,37,51,67,77,93,107,118,161,176,196,209,212,213,214,215,216,217,218,219,221,222,247},{24,38,53,79,95,108,120,163,177,198,212,213,214,215,216,217,218,219,220,222,249,264,279},{11,54,68,96,133,147,164,189,211,212,213,214,215,216,217,218,219,220,221,250,265,280},{0,12,26,39,81,98,121,135,166,178,212,224,225,226,227,228,229,230,231,232,233,234,235,236,237,252},{14,27,41,56,110,122,150,179,223,225,226,227,228,229,230,231,232,233,234,235,236,253,267},{1,15,28,42,57,69,83,100,123,137,151,180,201,223,224,226,227,228,229,230,231,232,233,234,235,236,268},{29,43,58,70,84,138,152,167,192,202,213,223,224,225,227,228,229,230,231,232,233,234,235,236,239,269},{31,45,60,101,112,139,153,169,182,214,223,224,225,226,228,229,230,231,232,233,234,235,236,241,271},{3,16,61,71,86,113,154,194,203,223,224,225,226,227,229,230,231,232,233,234,235,236,254,272},{5,47,63,87,126,170,183,195,205,216,223,224,225,226,227,228,230,231,232,233,234,235,236,256,273},{18,33,48,88,102,127,141,155,171,184,217,223,224,225,226,227,228,229,231,232,233,234,235,236,243,257},{7,20,35,64,74,90,104,116,129,143,157,173,186,206,223,224,225,226,227,228,229,230,232,233,234,235,236,245,259},{8,65,75,91,105,117,130,144,158,174,187,207,223,224,225,226,227,228,229,230,231,233,234,235,236,260,275},{21,49,66,92,131,159,175,188,208,223,224,225,226,227,228,229,230,231,232,234,235,236,261,276},{36,50,76,106,145,160,219,223,224,225,226,227,228,229,230,231,232,233,235,236,246,262,277},{10,23,52,78,94,119,132,146,162,197,210,223,224,225,226,227,228,229,230,231,232,233,234,236,248,263,278},{25,55,80,97,134,148,165,190,199,223,224,225,226,227,228,229,230,231,232,233,234,235,251},{0,12,26,39,81,98,121,135,166,178,212,223,238,239,240,241,242,243,244,245,246,247,248,249,250,251,252},{13,40,82,99,109,136,149,191,200,237,239,240,241,242,243,244,245,246,247,248,249,250,251,266},{29,43,58,70,84,138,152,167,192,202,213,226,237,238,240,241,242,243,244,245,246,247,248,249,250,251,269},{2,30,44,59,85,111,124,168,181,193,237,238,239,241,242,243,244,245,246,247,248,249,250,251,270},{31,45,60,101,112,139,153,169,182,214,227,237,238,239,240,242,243,244,245,246,247,248,249,250,251,271},{4,17,32,46,62,72,114,125,140,204,215,237,238,239,240,241,243,244,245,246,247,248,249,250,251,255},{18,33,48,88,102,127,141,155,171,184,217,230,237,238,239,240,241,242,244,245,246,247,248,249,250,251,257},{6,19,34,73,89,103,115,128,142,156,172,185,218,237,238,239,240,241,242,243,245,246,247,248,249,250,251,258,274},{7,20,35,64,74,90,104,116,129,143,157,173,186,206,231,237,238,239,240,241,242,243,244,246,247,248,249,250,251,259},{36,50,76,106,145,160,219,234,237,238,239,240,241,242,243,244,245,247,248,249,250,251,262,277},{9,22,37,51,67,77,93,107,118,161,176,196,209,220,237,238,239,240,241,242,243,244,245,246,248,249,250,251},{10,23,52,78,94,119,132,146,162,197,210,235,237,238,239,240,241,242,243,244,245,246,247,249,250,251,263,278},{24,38,53,79,95,108,120,163,177,198,221,237,238,239,240,241,242,243,244,245,246,247,248,250,251,264,279},{11,54,68,96,133,147,164,189,211,222,237,238,239,240,241,242,243,244,245,246,247,248,249,251,265,280},{25,55,80,97,134,148,165,190,199,236,237,238,239,240,241,242,243,244,245,246,247,248,249,250},{0,12,26,39,81,98,121,135,166,178,212,223,237,253,254,255,256,257,258,259,260,261,262,263,264,265},{14,27,41,56,110,122,150,179,224,252,254,255,256,257,258,259,260,261,262,263,264,265,267},{3,16,61,71,86,113,154,194,203,228,252,253,255,256,257,258,259,260,261,262,263,264,265,272},{4,17,32,46,62,72,114,125,140,204,215,242,252,253,254,256,257,258,259,260,261,262,263,264,265},{5,47,63,87,126,170,183,195,205,216,229,252,253,254,255,257,258,259,260,261,262,263,264,265,273},{18,33,48,88,102,127,141,155,171,184,217,230,243,252,253,254,255,256,258,259,260,261,262,263,264,265},{6,19,34,73,89,103,115,128,142,156,172,185,218,244,252,253,254,255,256,257,259,260,261,262,263,264,265,274},{7,20,35,64,74,90,104,116,129,143,157,173,186,206,231,245,252,253,254,255,256,257,258,260,261,262,263,264,265},{8,65,75,91,105,117,130,144,158,174,187,207,232,252,253,254,255,256,257,258,259,261,262,263,264,265,275},{21,49,66,92,131,159,175,188,208,233,252,253,254,255,256,257,258,259,260,262,263,264,265,276},{36,50,76,106,145,160,219,234,246,252,253,254,255,256,257,258,259,260,261,263,264,265,277},{10,23,52,78,94,119,132,146,162,197,210,235,248,252,253,254,255,256,257,258,259,260,261,262,264,265,278},{24,38,53,79,95,108,120,163,177,198,221,249,252,253,254,255,256,257,258,259,260,261,262,263,265,279},{11,54,68,96,133,147,164,189,211,222,250,252,253,254,255,256,257,258,259,260,261,262,263,264,280},{13,40,82,99,109,136,149,191,200,238,267,268,269,270,271,272,273,274,275,276,277,278,279,280},{14,27,41,56,110,122,150,179,224,253,266,268,269,270,271,272,273,274,275,276,277,278,279,280},{1,15,28,42,57,69,83,100,123,137,151,180,201,225,266,267,269,270,271,272,273,274,275,276,277,278,279,280},{29,43,58,70,84,138,152,167,192,202,213,226,239,266,267,268,270,271,272,273,274,275,276,277,278,279,280},{2,30,44,59,85,111,124,168,181,193,240,266,267,268,269,271,272,273,274,275,276,277,278,279,280},{31,45,60,101,112,139,153,169,182,214,227,241,266,267,268,269,270,272,273,274,275,276,277,278,279,280},{3,16,61,71,86,113,154,194,203,228,254,266,267,268,269,270,271,273,274,275,276,277,278,279,280},{5,47,63,87,126,170,183,195,205,216,229,256,266,267,268,269,270,271,272,274,275,276,277,278,279,280},{6,19,34,73,89,103,115,128,142,156,172,185,218,244,258,266,267,268,269,270,271,272,273,275,276,277,278,279,280},{8,65,75,91,105,117,130,144,158,174,187,207,232,260,266,267,268,269,270,271,272,273,274,276,277,278,279,280},{21,49,66,92,131,159,175,188,208,233,261,266,267,268,269,270,271,272,273,274,275,277,278,279,280},{36,50,76,106,145,160,219,234,246,262,266,267,268,269,270,271,272,273,274,275,276,278,279,280},{10,23,52,78,94,119,132,146,162,197,210,235,248,263,266,267,268,269,270,271,272,273,274,275,276,277,279,280},{24,38,53,79,95,108,120,163,177,198,221,249,264,266,267,268,269,270,271,272,273,274,275,276,277,278,280},{11,54,68,96,133,147,164,189,211,222,250,265,266,267,268,269,270,271,272,273,274,275,276,277,278,279}];
weights=[295,263,325,244,508,216,667,565,366,322,344,503,311,431,544,673,373,652,565,381,596,579,630,332,534,669,555,370,238,681,605,386,613,375,282,246,484,520,499,235,236,604,317,685,510,329,678,575,219,427,594,595,583,218,467,437,572,668,597,534,378,658,647,644,441,579,567,415,668,346,474,633,344,380,324,670,215,508,566,547,297,465,321,649,378,575,250,411,417,529,304,630,218,579,326,577,274,257,256,343,520,444,405,239,700,499,373,309,506,651,584,435,442,341,521,353,342,463,518,628,294,423,425,287,699,463,541,646,693,225,450,381,703,488,349,463,212,639,292,459,318,642,513,505,645,239,616,368,536,575,206,357,345,553,550,439,328,521,316,286,509,448,633,399,272,334,475,507,207,465,230,249,368,260,523,601,201,482,273,486,528,205,310,586,479,547,573,246,235,371,470,215,669,601,278,346,600,503,646,515,357,565,692,582,579,391,275,515,393,389,486,467,366,557,603,354,275,214,282,233,256,270,437,409,473,606,365,595,519,251,697,499,534,349,481,363,536,360,594,316,597,560,359,358,282,620,255,402,369,285,584,353,599,386,570,429,592,233,289,442,580,535,212,656,495,482,544,216,341,268,345,533,512,375,699,453,294,679,391,531,613];
